c File: data_files/evolved_graphs/g0637.col
c
c Auto generated graph
c
p edge 100 2921
e 1 2
e 1 5
e 1 6
e 1 7
e 1 8
e 1 9
e 1 10
e 1 11
e 1 14
e 1 15
e 1 18
e 1 20
e 1 21
e 1 26
e 1 34
e 1 35
e 1 36
e 1 37
e 1 38
e 1 39
e 1 41
e 1 42
e 1 51
e 1 52
e 1 53
e 1 54
e 1 55
e 1 56
e 1 57
e 1 58
e 1 59
e 1 60
e 1 61
e 1 62
e 1 63
e 1 64
e 1 65
e 1 66
e 1 67
e 1 68
e 1 69
e 1 70
e 1 71
e 1 72
e 1 73
e 1 74
e 1 75
e 1 76
e 1 77
e 1 78
e 1 79
e 1 80
e 1 81
e 1 82
e 1 83
e 1 84
e 1 85
e 1 86
e 1 87
e 1 88
e 1 89
e 1 93
e 1 94
e 1 95
e 1 96
e 1 97
e 1 98
e 1 99
e 1 100
e 2 5
e 2 6
e 2 7
e 2 8
e 2 9
e 2 10
e 2 11
e 2 16
e 2 17
e 2 18
e 2 19
e 2 20
e 2 21
e 2 22
e 2 25
e 2 26
e 2 31
e 2 34
e 2 35
e 2 36
e 2 37
e 2 41
e 2 42
e 2 45
e 2 48
e 2 52
e 2 54
e 2 55
e 2 56
e 2 57
e 2 58
e 2 59
e 2 60
e 2 61
e 2 62
e 2 63
e 2 64
e 2 65
e 2 66
e 2 67
e 2 68
e 2 69
e 2 70
e 2 72
e 2 73
e 2 74
e 2 75
e 2 76
e 2 77
e 2 78
e 2 79
e 2 80
e 2 81
e 2 82
e 2 83
e 2 84
e 2 85
e 2 86
e 2 87
e 2 88
e 2 89
e 2 91
e 2 93
e 2 94
e 2 95
e 2 96
e 2 97
e 2 98
e 2 99
e 2 100
e 3 4
e 3 5
e 3 6
e 3 7
e 3 8
e 3 9
e 3 10
e 3 11
e 3 15
e 3 16
e 3 18
e 3 19
e 3 20
e 3 22
e 3 23
e 3 25
e 3 27
e 3 28
e 3 34
e 3 35
e 3 37
e 3 38
e 3 41
e 3 42
e 3 46
e 3 51
e 3 52
e 3 54
e 3 55
e 3 56
e 3 57
e 3 59
e 3 61
e 3 62
e 3 63
e 3 66
e 3 67
e 3 68
e 3 69
e 3 70
e 3 71
e 3 72
e 3 73
e 3 74
e 3 75
e 3 76
e 3 77
e 3 78
e 3 79
e 3 80
e 3 82
e 3 83
e 3 84
e 3 85
e 3 86
e 3 87
e 3 89
e 3 91
e 3 93
e 3 94
e 3 95
e 3 96
e 3 97
e 3 98
e 3 99
e 3 100
e 4 5
e 4 6
e 4 7
e 4 8
e 4 9
e 4 10
e 4 11
e 4 12
e 4 13
e 4 14
e 4 15
e 4 18
e 4 20
e 4 21
e 4 22
e 4 30
e 4 32
e 4 33
e 4 38
e 4 39
e 4 40
e 4 42
e 4 43
e 4 44
e 4 45
e 4 46
e 4 50
e 4 51
e 4 52
e 4 53
e 4 54
e 4 57
e 4 59
e 4 60
e 4 61
e 4 62
e 4 63
e 4 64
e 4 65
e 4 66
e 4 67
e 4 68
e 4 69
e 4 70
e 4 71
e 4 74
e 4 75
e 4 76
e 4 77
e 4 78
e 4 79
e 4 80
e 4 84
e 4 85
e 4 86
e 4 87
e 4 88
e 4 89
e 4 91
e 4 93
e 4 94
e 4 95
e 4 100
e 5 6
e 5 8
e 5 9
e 5 10
e 5 11
e 5 12
e 5 13
e 5 15
e 5 16
e 5 17
e 5 18
e 5 19
e 5 20
e 5 21
e 5 22
e 5 23
e 5 29
e 5 31
e 5 32
e 5 33
e 5 41
e 5 42
e 5 48
e 5 51
e 5 52
e 5 54
e 5 56
e 5 57
e 5 58
e 5 60
e 5 61
e 5 64
e 5 65
e 5 66
e 5 67
e 5 68
e 5 70
e 5 71
e 5 74
e 5 75
e 5 76
e 5 77
e 5 78
e 5 79
e 5 80
e 5 81
e 5 82
e 5 83
e 5 85
e 5 86
e 5 87
e 5 88
e 5 91
e 5 93
e 5 94
e 5 96
e 5 99
e 6 7
e 6 8
e 6 9
e 6 10
e 6 11
e 6 12
e 6 13
e 6 18
e 6 19
e 6 20
e 6 26
e 6 31
e 6 32
e 6 33
e 6 41
e 6 42
e 6 43
e 6 44
e 6 45
e 6 47
e 6 48
e 6 49
e 6 50
e 6 51
e 6 52
e 6 53
e 6 54
e 6 55
e 6 56
e 6 57
e 6 58
e 6 59
e 6 60
e 6 61
e 6 62
e 6 63
e 6 64
e 6 65
e 6 67
e 6 68
e 6 70
e 6 71
e 6 74
e 6 75
e 6 76
e 6 77
e 6 78
e 6 79
e 6 80
e 6 81
e 6 82
e 6 84
e 6 85
e 6 86
e 6 87
e 6 88
e 6 91
e 6 93
e 6 94
e 6 95
e 6 96
e 6 97
e 6 98
e 6 99
e 6 100
e 7 9
e 7 10
e 7 11
e 7 12
e 7 13
e 7 14
e 7 18
e 7 19
e 7 20
e 7 25
e 7 28
e 7 31
e 7 32
e 7 33
e 7 36
e 7 37
e 7 38
e 7 40
e 7 41
e 7 43
e 7 44
e 7 45
e 7 46
e 7 47
e 7 48
e 7 53
e 7 54
e 7 56
e 7 57
e 7 59
e 7 60
e 7 61
e 7 62
e 7 63
e 7 65
e 7 67
e 7 69
e 7 70
e 7 71
e 7 72
e 7 73
e 7 74
e 7 75
e 7 76
e 7 77
e 7 78
e 7 79
e 7 80
e 7 81
e 7 82
e 7 83
e 7 84
e 7 85
e 7 86
e 7 87
e 7 88
e 7 89
e 7 92
e 7 93
e 7 94
e 7 95
e 7 96
e 7 97
e 7 98
e 7 99
e 7 100
e 8 9
e 8 10
e 8 11
e 8 12
e 8 13
e 8 16
e 8 19
e 8 20
e 8 21
e 8 22
e 8 23
e 8 24
e 8 25
e 8 29
e 8 30
e 8 31
e 8 32
e 8 33
e 8 36
e 8 37
e 8 38
e 8 39
e 8 40
e 8 41
e 8 42
e 8 43
e 8 44
e 8 45
e 8 46
e 8 47
e 8 48
e 8 52
e 8 53
e 8 54
e 8 55
e 8 56
e 8 59
e 8 60
e 8 61
e 8 62
e 8 63
e 8 64
e 8 65
e 8 66
e 8 68
e 8 69
e 8 70
e 8 71
e 8 72
e 8 73
e 8 74
e 8 75
e 8 76
e 8 77
e 8 78
e 8 79
e 8 80
e 8 81
e 8 82
e 8 83
e 8 84
e 8 85
e 8 86
e 8 87
e 8 88
e 8 89
e 8 92
e 8 93
e 8 94
e 8 95
e 8 96
e 8 98
e 8 99
e 8 100
e 9 12
e 9 16
e 9 19
e 9 20
e 9 21
e 9 22
e 9 23
e 9 24
e 9 25
e 9 27
e 9 29
e 9 31
e 9 32
e 9 33
e 9 34
e 9 35
e 9 37
e 9 38
e 9 39
e 9 40
e 9 41
e 9 42
e 9 43
e 9 44
e 9 45
e 9 46
e 9 47
e 9 48
e 9 49
e 9 50
e 9 51
e 9 52
e 9 53
e 9 55
e 9 57
e 9 58
e 9 59
e 9 60
e 9 61
e 9 62
e 9 63
e 9 64
e 9 66
e 9 67
e 9 68
e 9 70
e 9 71
e 9 72
e 9 73
e 9 74
e 9 75
e 9 76
e 9 77
e 9 78
e 9 79
e 9 80
e 9 81
e 9 83
e 9 84
e 9 85
e 9 86
e 9 87
e 9 88
e 9 89
e 9 92
e 9 93
e 9 94
e 9 95
e 9 96
e 9 97
e 9 98
e 9 99
e 9 100
e 10 13
e 10 15
e 10 17
e 10 18
e 10 20
e 10 21
e 10 22
e 10 25
e 10 27
e 10 28
e 10 29
e 10 30
e 10 31
e 10 32
e 10 33
e 10 34
e 10 35
e 10 36
e 10 37
e 10 38
e 10 41
e 10 42
e 10 43
e 10 44
e 10 45
e 10 46
e 10 47
e 10 48
e 10 49
e 10 50
e 10 51
e 10 54
e 10 55
e 10 56
e 10 57
e 10 58
e 10 59
e 10 60
e 10 63
e 10 65
e 10 66
e 10 67
e 10 68
e 10 69
e 10 74
e 10 75
e 10 76
e 10 77
e 10 78
e 10 79
e 10 80
e 10 81
e 10 82
e 10 83
e 10 84
e 10 85
e 10 86
e 10 87
e 10 88
e 10 89
e 10 93
e 10 94
e 10 95
e 10 96
e 10 97
e 10 98
e 10 99
e 10 100
e 11 17
e 11 18
e 11 20
e 11 21
e 11 26
e 11 27
e 11 28
e 11 29
e 11 31
e 11 32
e 11 33
e 11 34
e 11 35
e 11 36
e 11 37
e 11 38
e 11 41
e 11 42
e 11 43
e 11 44
e 11 45
e 11 46
e 11 48
e 11 49
e 11 50
e 11 51
e 11 61
e 11 62
e 11 63
e 11 64
e 11 65
e 11 66
e 11 67
e 11 68
e 11 69
e 11 74
e 11 75
e 11 76
e 11 77
e 11 78
e 11 79
e 11 80
e 11 81
e 11 82
e 11 83
e 11 84
e 11 85
e 11 86
e 11 87
e 11 88
e 11 89
e 11 91
e 11 93
e 11 94
e 11 95
e 11 96
e 11 97
e 11 98
e 11 99
e 12 17
e 12 19
e 12 20
e 12 21
e 12 24
e 12 25
e 12 26
e 12 27
e 12 28
e 12 29
e 12 30
e 12 32
e 12 34
e 12 35
e 12 36
e 12 37
e 12 38
e 12 41
e 12 42
e 12 43
e 12 44
e 12 45
e 12 46
e 12 47
e 12 48
e 12 49
e 12 50
e 12 51
e 12 61
e 12 62
e 12 63
e 12 64
e 12 67
e 12 68
e 12 69
e 12 70
e 12 71
e 12 72
e 12 73
e 12 74
e 12 75
e 12 76
e 12 78
e 12 79
e 12 80
e 12 81
e 12 82
e 12 83
e 12 84
e 12 85
e 12 86
e 12 87
e 12 88
e 12 89
e 12 91
e 12 93
e 12 94
e 12 95
e 12 96
e 12 97
e 12 98
e 12 99
e 12 100
e 13 17
e 13 18
e 13 19
e 13 20
e 13 21
e 13 24
e 13 25
e 13 27
e 13 28
e 13 29
e 13 31
e 13 32
e 13 33
e 13 34
e 13 35
e 13 36
e 13 37
e 13 38
e 13 39
e 13 41
e 13 43
e 13 44
e 13 46
e 13 47
e 13 48
e 13 49
e 13 50
e 13 51
e 13 61
e 13 63
e 13 64
e 13 65
e 13 66
e 13 67
e 13 68
e 13 69
e 13 70
e 13 71
e 13 72
e 13 73
e 13 74
e 13 75
e 13 76
e 13 77
e 13 79
e 13 80
e 13 81
e 13 82
e 13 83
e 13 84
e 13 85
e 13 86
e 13 87
e 13 88
e 13 89
e 13 90
e 13 91
e 13 93
e 13 94
e 13 95
e 13 96
e 13 97
e 13 98
e 13 99
e 13 100
e 14 17
e 14 24
e 14 25
e 14 26
e 14 27
e 14 28
e 14 30
e 14 31
e 14 32
e 14 33
e 14 34
e 14 35
e 14 36
e 14 37
e 14 38
e 14 39
e 14 40
e 14 41
e 14 42
e 14 43
e 14 44
e 14 60
e 14 61
e 14 62
e 14 63
e 14 64
e 14 65
e 14 66
e 14 67
e 14 68
e 14 69
e 14 70
e 14 71
e 14 72
e 14 73
e 14 74
e 14 75
e 14 76
e 14 77
e 14 79
e 14 81
e 14 82
e 14 83
e 14 84
e 14 85
e 14 86
e 14 87
e 14 88
e 14 89
e 14 91
e 14 93
e 14 94
e 14 95
e 14 96
e 14 97
e 14 98
e 14 99
e 14 100
e 15 17
e 15 24
e 15 25
e 15 26
e 15 27
e 15 28
e 15 29
e 15 30
e 15 31
e 15 32
e 15 33
e 15 34
e 15 35
e 15 36
e 15 37
e 15 38
e 15 39
e 15 40
e 15 41
e 15 42
e 15 43
e 15 44
e 15 60
e 15 62
e 15 63
e 15 64
e 15 65
e 15 66
e 15 67
e 15 68
e 15 69
e 15 70
e 15 71
e 15 72
e 15 73
e 15 74
e 15 75
e 15 76
e 15 77
e 15 79
e 15 82
e 15 85
e 15 86
e 15 87
e 15 88
e 15 89
e 15 91
e 15 92
e 15 93
e 15 94
e 15 95
e 15 96
e 15 97
e 15 98
e 15 99
e 15 100
e 16 18
e 16 21
e 16 24
e 16 25
e 16 26
e 16 27
e 16 30
e 16 31
e 16 32
e 16 33
e 16 34
e 16 36
e 16 37
e 16 38
e 16 39
e 16 40
e 16 41
e 16 42
e 16 43
e 16 44
e 16 60
e 16 61
e 16 62
e 16 63
e 16 64
e 16 65
e 16 66
e 16 67
e 16 68
e 16 69
e 16 70
e 16 71
e 16 72
e 16 73
e 16 74
e 16 75
e 16 76
e 16 77
e 16 79
e 16 80
e 16 81
e 16 82
e 16 83
e 16 85
e 16 87
e 16 88
e 16 89
e 16 91
e 16 92
e 16 93
e 16 94
e 16 96
e 16 97
e 16 98
e 16 99
e 16 100
e 17 24
e 17 25
e 17 26
e 17 27
e 17 28
e 17 29
e 17 30
e 17 31
e 17 32
e 17 33
e 17 34
e 17 35
e 17 36
e 17 37
e 17 38
e 17 39
e 17 40
e 17 41
e 17 43
e 17 44
e 17 66
e 17 67
e 17 68
e 17 69
e 17 70
e 17 71
e 17 72
e 17 73
e 17 74
e 17 75
e 17 76
e 17 77
e 17 78
e 17 79
e 17 80
e 17 81
e 17 82
e 17 83
e 17 84
e 17 85
e 17 86
e 17 87
e 17 88
e 17 89
e 17 90
e 17 91
e 17 92
e 17 93
e 17 94
e 17 95
e 17 96
e 17 97
e 17 98
e 17 99
e 17 100
e 18 25
e 18 27
e 18 28
e 18 29
e 18 30
e 18 31
e 18 32
e 18 33
e 18 34
e 18 35
e 18 36
e 18 37
e 18 38
e 18 39
e 18 40
e 18 41
e 18 42
e 18 43
e 18 44
e 18 66
e 18 67
e 18 68
e 18 69
e 18 70
e 18 71
e 18 72
e 18 73
e 18 74
e 18 75
e 18 76
e 18 77
e 18 78
e 18 80
e 18 81
e 18 82
e 18 83
e 18 84
e 18 85
e 18 86
e 18 87
e 18 88
e 18 89
e 18 90
e 18 91
e 18 92
e 18 93
e 18 94
e 18 95
e 18 96
e 18 97
e 18 99
e 18 100
e 19 24
e 19 25
e 19 26
e 19 27
e 19 28
e 19 29
e 19 30
e 19 31
e 19 32
e 19 34
e 19 35
e 19 36
e 19 37
e 19 39
e 19 41
e 19 42
e 19 44
e 19 52
e 19 61
e 19 62
e 19 63
e 19 64
e 19 65
e 19 66
e 19 67
e 19 68
e 19 69
e 19 70
e 19 71
e 19 72
e 19 73
e 19 74
e 19 75
e 19 76
e 19 77
e 19 78
e 19 79
e 19 80
e 19 81
e 19 82
e 19 83
e 19 84
e 19 85
e 19 86
e 19 87
e 19 88
e 19 89
e 19 90
e 19 91
e 19 93
e 19 95
e 19 96
e 19 97
e 19 98
e 19 99
e 19 100
e 20 31
e 20 32
e 20 33
e 20 35
e 20 37
e 20 38
e 20 39
e 20 41
e 20 42
e 20 43
e 20 44
e 20 51
e 20 52
e 20 60
e 20 61
e 20 62
e 20 63
e 20 64
e 20 65
e 20 66
e 20 67
e 20 68
e 20 69
e 20 70
e 20 71
e 20 72
e 20 73
e 20 74
e 20 75
e 20 76
e 20 78
e 20 79
e 20 80
e 20 81
e 20 82
e 20 83
e 20 84
e 20 85
e 20 86
e 20 87
e 20 88
e 20 89
e 20 90
e 20 91
e 20 92
e 20 93
e 20 94
e 20 95
e 20 97
e 20 98
e 20 99
e 20 100
e 21 27
e 21 28
e 21 32
e 21 33
e 21 35
e 21 37
e 21 38
e 21 39
e 21 41
e 21 42
e 21 43
e 21 44
e 21 51
e 21 52
e 21 60
e 21 61
e 21 62
e 21 63
e 21 64
e 21 65
e 21 66
e 21 67
e 21 68
e 21 76
e 21 77
e 21 78
e 21 79
e 21 80
e 21 81
e 21 82
e 21 83
e 21 84
e 21 85
e 21 86
e 21 87
e 21 88
e 21 89
e 21 90
e 21 91
e 21 92
e 21 93
e 21 94
e 21 95
e 21 96
e 21 97
e 21 98
e 21 99
e 22 25
e 22 26
e 22 28
e 22 30
e 22 32
e 22 33
e 22 35
e 22 36
e 22 37
e 22 38
e 22 39
e 22 40
e 22 41
e 22 42
e 22 43
e 22 44
e 22 51
e 22 52
e 22 60
e 22 61
e 22 62
e 22 63
e 22 64
e 22 65
e 22 66
e 22 76
e 22 77
e 22 78
e 22 79
e 22 80
e 22 81
e 22 82
e 22 83
e 22 84
e 22 85
e 22 86
e 22 87
e 22 88
e 22 89
e 22 90
e 22 91
e 22 92
e 22 93
e 22 94
e 22 95
e 22 96
e 22 97
e 22 98
e 22 99
e 22 100
e 23 24
e 23 27
e 23 34
e 23 36
e 23 37
e 23 38
e 23 39
e 23 40
e 23 41
e 23 44
e 23 45
e 23 46
e 23 47
e 23 48
e 23 49
e 23 50
e 23 60
e 23 62
e 23 63
e 23 64
e 23 65
e 23 66
e 23 71
e 23 72
e 23 73
e 23 74
e 23 75
e 23 76
e 23 77
e 23 78
e 23 79
e 23 80
e 23 81
e 23 82
e 23 83
e 23 84
e 23 85
e 23 86
e 23 87
e 23 88
e 23 94
e 23 95
e 23 96
e 23 97
e 23 98
e 23 99
e 23 100
e 24 27
e 24 28
e 24 29
e 24 30
e 24 33
e 24 36
e 24 37
e 24 38
e 24 39
e 24 40
e 24 41
e 24 44
e 24 46
e 24 47
e 24 48
e 24 49
e 24 60
e 24 61
e 24 62
e 24 63
e 24 64
e 24 65
e 24 66
e 24 71
e 24 72
e 24 73
e 24 74
e 24 75
e 24 76
e 24 77
e 24 78
e 24 79
e 24 80
e 24 81
e 24 82
e 24 83
e 24 84
e 24 85
e 24 86
e 24 87
e 24 88
e 24 90
e 24 92
e 24 94
e 24 95
e 24 96
e 24 98
e 24 100
e 25 33
e 25 34
e 25 36
e 25 37
e 25 39
e 25 40
e 25 41
e 25 44
e 25 45
e 25 46
e 25 47
e 25 48
e 25 50
e 25 59
e 25 61
e 25 64
e 25 65
e 25 66
e 25 71
e 25 72
e 25 73
e 25 74
e 25 75
e 25 76
e 25 77
e 25 78
e 25 79
e 25 80
e 25 81
e 25 82
e 25 83
e 25 84
e 25 85
e 25 86
e 25 87
e 25 88
e 25 89
e 25 90
e 25 93
e 25 94
e 25 95
e 25 96
e 25 98
e 25 99
e 25 100
e 26 27
e 26 33
e 26 34
e 26 36
e 26 37
e 26 38
e 26 39
e 26 40
e 26 45
e 26 46
e 26 47
e 26 48
e 26 49
e 26 50
e 26 60
e 26 61
e 26 64
e 26 65
e 26 66
e 26 71
e 26 72
e 26 75
e 26 76
e 26 77
e 26 79
e 26 81
e 26 86
e 26 87
e 26 88
e 26 89
e 26 90
e 26 91
e 26 93
e 26 94
e 26 95
e 26 96
e 26 99
e 26 100
e 27 31
e 27 36
e 27 37
e 27 38
e 27 40
e 27 41
e 27 44
e 27 45
e 27 47
e 27 49
e 27 50
e 27 60
e 27 61
e 27 64
e 27 65
e 27 66
e 27 67
e 27 68
e 27 69
e 27 70
e 27 72
e 27 73
e 27 75
e 27 76
e 27 78
e 27 79
e 27 80
e 27 81
e 27 82
e 27 83
e 27 84
e 27 85
e 27 86
e 27 87
e 27 88
e 27 93
e 27 94
e 27 95
e 27 96
e 27 98
e 27 99
e 27 100
e 28 31
e 28 34
e 28 37
e 28 38
e 28 39
e 28 41
e 28 44
e 28 46
e 28 47
e 28 49
e 28 50
e 28 60
e 28 61
e 28 62
e 28 63
e 28 64
e 28 65
e 28 66
e 28 67
e 28 68
e 28 69
e 28 70
e 28 75
e 28 78
e 28 79
e 28 80
e 28 82
e 28 83
e 28 84
e 28 85
e 28 86
e 28 87
e 28 88
e 28 94
e 28 97
e 28 98
e 28 99
e 28 100
e 29 31
e 29 32
e 29 36
e 29 39
e 29 40
e 29 41
e 29 44
e 29 45
e 29 46
e 29 47
e 29 51
e 29 52
e 29 53
e 29 54
e 29 55
e 29 56
e 29 57
e 29 58
e 29 59
e 29 60
e 29 61
e 29 63
e 29 64
e 29 65
e 29 66
e 29 67
e 29 68
e 29 69
e 29 70
e 29 72
e 29 74
e 29 75
e 29 78
e 29 79
e 29 80
e 29 81
e 29 82
e 29 83
e 29 84
e 29 85
e 29 86
e 29 87
e 29 88
e 29 93
e 29 94
e 29 95
e 29 96
e 29 98
e 29 100
e 30 31
e 30 32
e 30 36
e 30 37
e 30 41
e 30 44
e 30 45
e 30 51
e 30 52
e 30 53
e 30 55
e 30 56
e 30 57
e 30 58
e 30 59
e 30 61
e 30 64
e 30 65
e 30 66
e 30 67
e 30 68
e 30 69
e 30 71
e 30 77
e 30 78
e 30 79
e 30 80
e 30 81
e 30 82
e 30 83
e 30 84
e 30 85
e 30 86
e 30 87
e 30 88
e 30 91
e 30 93
e 30 94
e 30 95
e 30 96
e 30 97
e 30 98
e 30 99
e 31 36
e 31 39
e 31 40
e 31 41
e 31 43
e 31 46
e 31 57
e 31 61
e 31 64
e 31 65
e 31 67
e 31 68
e 31 69
e 31 70
e 31 71
e 31 72
e 31 73
e 31 74
e 31 75
e 31 76
e 31 77
e 31 78
e 31 79
e 31 80
e 31 81
e 31 82
e 31 83
e 31 84
e 31 85
e 31 86
e 31 87
e 31 88
e 31 89
e 31 92
e 31 93
e 31 94
e 31 95
e 31 96
e 31 98
e 31 99
e 31 100
e 32 39
e 32 40
e 32 41
e 32 45
e 32 46
e 32 48
e 32 52
e 32 53
e 32 55
e 32 58
e 32 60
e 32 64
e 32 65
e 32 66
e 32 67
e 32 68
e 32 69
e 32 70
e 32 72
e 32 73
e 32 74
e 32 75
e 32 76
e 32 77
e 32 78
e 32 79
e 32 80
e 32 81
e 32 82
e 32 83
e 32 84
e 32 85
e 32 86
e 32 87
e 32 88
e 32 92
e 32 95
e 32 97
e 32 98
e 32 99
e 32 100
e 33 39
e 33 40
e 33 41
e 33 42
e 33 44
e 33 48
e 33 52
e 33 57
e 33 59
e 33 61
e 33 64
e 33 65
e 33 66
e 33 67
e 33 68
e 33 69
e 33 71
e 33 72
e 33 73
e 33 74
e 33 75
e 33 76
e 33 77
e 33 78
e 33 80
e 33 81
e 33 82
e 33 83
e 33 84
e 33 85
e 33 86
e 33 87
e 33 88
e 33 90
e 33 91
e 33 92
e 33 96
e 33 97
e 33 99
e 33 100
e 34 39
e 34 40
e 34 43
e 34 44
e 34 45
e 34 46
e 34 47
e 34 48
e 34 49
e 34 50
e 34 51
e 34 52
e 34 53
e 34 54
e 34 55
e 34 56
e 34 57
e 34 58
e 34 59
e 34 76
e 34 77
e 34 79
e 34 80
e 34 81
e 34 82
e 34 83
e 34 84
e 34 86
e 34 87
e 34 88
e 34 91
e 34 92
e 34 97
e 34 98
e 34 99
e 35 39
e 35 40
e 35 41
e 35 42
e 35 44
e 35 45
e 35 46
e 35 47
e 35 48
e 35 49
e 35 50
e 35 51
e 35 52
e 35 53
e 35 54
e 35 55
e 35 56
e 35 57
e 35 58
e 35 59
e 35 76
e 35 77
e 35 78
e 35 79
e 35 80
e 35 81
e 35 82
e 35 83
e 35 84
e 35 85
e 35 87
e 35 88
e 35 90
e 35 91
e 35 92
e 35 93
e 35 94
e 35 95
e 35 96
e 35 98
e 35 99
e 35 100
e 36 39
e 36 40
e 36 41
e 36 43
e 36 44
e 36 45
e 36 46
e 36 47
e 36 48
e 36 49
e 36 50
e 36 51
e 36 52
e 36 53
e 36 54
e 36 55
e 36 56
e 36 57
e 36 58
e 36 59
e 36 76
e 36 77
e 36 79
e 36 80
e 36 81
e 36 82
e 36 87
e 36 88
e 36 89
e 36 90
e 36 91
e 36 92
e 36 93
e 36 95
e 36 96
e 36 98
e 36 99
e 36 100
e 37 40
e 37 41
e 37 42
e 37 43
e 37 44
e 37 45
e 37 46
e 37 47
e 37 48
e 37 49
e 37 50
e 37 51
e 37 52
e 37 53
e 37 54
e 37 55
e 37 56
e 37 57
e 37 58
e 37 59
e 37 74
e 37 75
e 37 76
e 37 77
e 37 78
e 37 79
e 37 80
e 37 81
e 37 82
e 37 87
e 37 88
e 37 89
e 37 90
e 37 91
e 37 92
e 37 94
e 37 96
e 37 97
e 37 98
e 37 99
e 37 100
e 38 41
e 38 42
e 38 43
e 38 44
e 38 45
e 38 46
e 38 47
e 38 48
e 38 50
e 38 51
e 38 52
e 38 53
e 38 54
e 38 55
e 38 56
e 38 58
e 38 59
e 38 60
e 38 61
e 38 63
e 38 64
e 38 65
e 38 74
e 38 76
e 38 77
e 38 78
e 38 79
e 38 80
e 38 81
e 38 82
e 38 87
e 38 91
e 39 41
e 39 42
e 39 43
e 39 49
e 39 50
e 39 51
e 39 52
e 39 53
e 39 54
e 39 55
e 39 56
e 39 57
e 39 58
e 39 59
e 39 60
e 39 61
e 39 62
e 39 63
e 39 64
e 39 70
e 39 71
e 39 72
e 39 73
e 39 77
e 39 78
e 39 79
e 39 80
e 39 81
e 39 82
e 39 83
e 39 84
e 39 85
e 39 86
e 39 87
e 39 89
e 40 43
e 40 44
e 40 45
e 40 46
e 40 47
e 40 48
e 40 49
e 40 50
e 40 51
e 40 52
e 40 53
e 40 54
e 40 55
e 40 56
e 40 57
e 40 58
e 40 59
e 40 60
e 40 62
e 40 63
e 40 64
e 40 65
e 40 70
e 40 71
e 40 72
e 40 73
e 40 74
e 40 75
e 40 76
e 40 77
e 40 78
e 40 79
e 40 80
e 40 81
e 40 82
e 40 83
e 40 84
e 40 85
e 40 86
e 40 87
e 40 90
e 40 93
e 41 42
e 41 43
e 41 44
e 41 45
e 41 46
e 41 47
e 41 48
e 41 49
e 41 50
e 41 51
e 41 52
e 41 53
e 41 54
e 41 55
e 41 56
e 41 57
e 41 58
e 41 59
e 41 60
e 41 61
e 41 62
e 41 64
e 41 70
e 41 71
e 41 72
e 41 73
e 41 74
e 41 75
e 41 76
e 41 77
e 41 78
e 41 79
e 41 80
e 41 81
e 41 82
e 41 83
e 41 84
e 41 85
e 41 86
e 41 87
e 41 88
e 41 100
e 42 43
e 42 44
e 42 45
e 42 46
e 42 47
e 42 48
e 42 49
e 42 50
e 42 51
e 42 52
e 42 53
e 42 54
e 42 55
e 42 56
e 42 57
e 42 58
e 42 59
e 42 60
e 42 61
e 42 62
e 42 64
e 42 70
e 42 71
e 42 72
e 42 73
e 42 74
e 42 75
e 42 76
e 42 77
e 42 78
e 42 79
e 42 80
e 42 81
e 42 82
e 42 83
e 42 84
e 42 87
e 42 89
e 42 94
e 42 100
e 43 47
e 43 49
e 43 50
e 43 52
e 43 54
e 43 56
e 43 58
e 43 59
e 43 60
e 43 61
e 43 62
e 43 63
e 43 64
e 43 65
e 43 66
e 43 67
e 43 68
e 43 69
e 43 70
e 43 71
e 43 72
e 43 73
e 43 74
e 43 75
e 43 76
e 43 77
e 43 78
e 43 79
e 43 80
e 43 81
e 43 82
e 43 83
e 43 84
e 43 88
e 43 90
e 43 91
e 43 92
e 44 47
e 44 49
e 44 50
e 44 51
e 44 52
e 44 53
e 44 54
e 44 56
e 44 57
e 44 58
e 44 59
e 44 60
e 44 61
e 44 62
e 44 64
e 44 65
e 44 66
e 44 67
e 44 68
e 44 69
e 44 70
e 44 71
e 44 72
e 44 73
e 44 74
e 44 75
e 44 76
e 44 77
e 44 78
e 44 79
e 44 81
e 44 82
e 44 83
e 44 87
e 44 88
e 44 89
e 44 90
e 44 92
e 44 96
e 45 47
e 45 49
e 45 50
e 45 51
e 45 52
e 45 53
e 45 54
e 45 56
e 45 57
e 45 60
e 45 61
e 45 62
e 45 63
e 45 64
e 45 65
e 45 66
e 45 67
e 45 68
e 45 69
e 45 70
e 45 71
e 45 72
e 45 73
e 45 74
e 45 75
e 45 76
e 45 77
e 45 78
e 45 79
e 45 81
e 45 82
e 45 83
e 45 84
e 45 85
e 45 86
e 45 87
e 46 47
e 46 49
e 46 50
e 46 51
e 46 52
e 46 53
e 46 54
e 46 56
e 46 57
e 46 58
e 46 59
e 46 60
e 46 61
e 46 62
e 46 63
e 46 64
e 46 65
e 46 66
e 46 67
e 46 68
e 46 69
e 46 70
e 46 71
e 46 72
e 46 73
e 46 75
e 46 76
e 46 77
e 46 78
e 46 79
e 46 80
e 46 82
e 46 83
e 46 84
e 46 85
e 46 86
e 46 87
e 47 48
e 47 49
e 47 51
e 47 52
e 47 54
e 47 55
e 47 56
e 47 57
e 47 58
e 47 59
e 47 60
e 47 61
e 47 62
e 47 63
e 47 64
e 47 65
e 47 66
e 47 67
e 47 68
e 47 69
e 47 70
e 47 71
e 47 72
e 47 73
e 47 74
e 47 75
e 47 76
e 47 77
e 47 78
e 47 79
e 47 80
e 47 81
e 47 83
e 47 84
e 47 85
e 47 86
e 47 87
e 48 49
e 48 50
e 48 51
e 48 52
e 48 54
e 48 56
e 48 57
e 48 58
e 48 59
e 48 60
e 48 61
e 48 62
e 48 63
e 48 64
e 48 65
e 48 66
e 48 67
e 48 68
e 48 69
e 48 70
e 48 71
e 48 72
e 48 73
e 48 74
e 48 75
e 48 76
e 48 77
e 48 78
e 48 79
e 48 80
e 48 81
e 48 83
e 48 84
e 48 85
e 48 86
e 48 87
e 49 51
e 49 52
e 49 54
e 49 56
e 49 57
e 49 58
e 49 59
e 49 60
e 49 61
e 49 62
e 49 63
e 49 64
e 49 65
e 49 66
e 49 67
e 49 68
e 49 69
e 49 70
e 49 71
e 49 72
e 49 73
e 49 74
e 49 75
e 49 76
e 49 77
e 49 78
e 49 79
e 49 81
e 49 82
e 49 83
e 49 84
e 49 85
e 49 86
e 49 87
e 49 97
e 49 98
e 49 99
e 50 53
e 50 54
e 50 55
e 50 56
e 50 57
e 50 58
e 50 59
e 50 60
e 50 61
e 50 62
e 50 63
e 50 64
e 50 65
e 50 66
e 50 67
e 50 68
e 50 69
e 50 70
e 50 71
e 50 73
e 50 74
e 50 75
e 50 76
e 50 77
e 50 78
e 50 79
e 50 80
e 50 81
e 50 82
e 50 83
e 50 85
e 50 86
e 50 87
e 50 92
e 50 97
e 50 98
e 51 52
e 51 53
e 51 54
e 51 55
e 51 56
e 51 57
e 51 58
e 51 59
e 51 60
e 51 61
e 51 62
e 51 63
e 51 64
e 51 65
e 51 66
e 51 67
e 51 68
e 51 69
e 51 70
e 51 71
e 51 72
e 51 73
e 51 74
e 51 75
e 51 76
e 51 77
e 51 78
e 51 79
e 51 80
e 51 81
e 51 82
e 51 83
e 51 84
e 51 85
e 51 87
e 51 97
e 51 98
e 51 99
e 51 100
e 52 53
e 52 54
e 52 55
e 52 56
e 52 57
e 52 58
e 52 59
e 52 60
e 52 61
e 52 62
e 52 63
e 52 65
e 52 66
e 52 67
e 52 68
e 52 69
e 52 70
e 52 73
e 52 74
e 52 75
e 52 76
e 52 77
e 52 79
e 52 80
e 52 81
e 52 82
e 52 83
e 52 85
e 52 86
e 52 87
e 52 97
e 52 100
e 53 60
e 53 61
e 53 62
e 53 63
e 53 64
e 53 65
e 53 66
e 53 67
e 53 68
e 53 69
e 53 73
e 53 74
e 53 75
e 53 76
e 53 77
e 53 78
e 53 79
e 53 80
e 53 81
e 53 82
e 53 83
e 53 84
e 53 85
e 53 86
e 53 87
e 53 97
e 53 98
e 53 99
e 53 100
e 54 60
e 54 61
e 54 62
e 54 63
e 54 64
e 54 65
e 54 66
e 54 67
e 54 68
e 54 69
e 54 70
e 54 73
e 54 74
e 54 76
e 54 77
e 54 78
e 54 79
e 54 80
e 54 81
e 54 82
e 54 83
e 54 84
e 54 85
e 54 86
e 54 87
e 54 98
e 54 99
e 54 100
e 55 59
e 55 60
e 55 62
e 55 63
e 55 64
e 55 65
e 55 66
e 55 67
e 55 68
e 55 69
e 55 70
e 55 74
e 55 76
e 55 77
e 55 78
e 55 79
e 55 81
e 55 83
e 55 84
e 55 85
e 55 86
e 55 87
e 55 95
e 55 98
e 55 99
e 55 100
e 56 60
e 56 61
e 56 62
e 56 63
e 56 64
e 56 65
e 56 66
e 56 67
e 56 68
e 56 69
e 56 70
e 56 73
e 56 74
e 56 75
e 56 76
e 56 77
e 56 78
e 56 79
e 56 80
e 56 81
e 56 82
e 56 83
e 56 84
e 56 85
e 56 86
e 56 87
e 56 98
e 56 99
e 56 100
e 57 60
e 57 61
e 57 62
e 57 63
e 57 64
e 57 65
e 57 66
e 57 67
e 57 73
e 57 75
e 57 90
e 57 98
e 57 99
e 57 100
e 58 60
e 58 61
e 58 62
e 58 63
e 58 64
e 58 65
e 58 67
e 58 98
e 58 99
e 58 100
e 59 60
e 59 61
e 59 62
e 59 63
e 59 64
e 59 65
e 59 66
e 59 67
e 59 88
e 59 100
e 60 72
e 60 80
e 61 65
e 61 90
e 63 65
e 63 94
e 63 95
e 63 96
e 63 97
e 63 98
e 63 99
e 64 65
e 64 85
e 64 86
e 64 87
e 64 88
e 64 94
e 64 95
e 64 96
e 64 97
e 64 98
e 64 99
e 65 94
e 65 95
e 65 96
e 65 97
e 65 98
e 65 100
e 67 71
e 67 88
e 67 89
e 67 90
e 67 91
e 67 100
e 68 78
e 68 81
e 68 82
e 68 83
e 68 84
e 68 86
e 68 87
e 68 88
e 68 89
e 68 90
e 68 91
e 68 93
e 68 98
e 68 100
e 69 71
e 69 81
e 69 82
e 69 83
e 69 84
e 69 85
e 69 86
e 69 87
e 69 88
e 69 89
e 69 90
e 69 91
e 69 93
e 70 81
e 70 82
e 70 83
e 70 84
e 70 85
e 70 86
e 70 87
e 70 88
e 70 89
e 70 90
e 70 91
e 70 92
e 71 81
e 71 82
e 71 83
e 71 84
e 71 85
e 71 87
e 71 88
e 71 90
e 71 92
e 71 93
e 72 77
e 72 78
e 72 81
e 72 82
e 72 83
e 72 84
e 72 85
e 72 86
e 72 87
e 72 88
e 72 89
e 72 90
e 72 91
e 72 92
e 72 93
e 72 94
e 72 95
e 72 96
e 72 99
e 72 100
e 73 81
e 73 82
e 73 83
e 73 84
e 73 85
e 73 86
e 73 87
e 73 91
e 73 92
e 74 81
e 74 82
e 74 83
e 74 84
e 74 85
e 74 86
e 74 87
e 74 88
e 74 91
e 74 92
e 74 100
e 75 81
e 75 82
e 75 83
e 75 84
e 75 85
e 75 86
e 75 87
e 75 89
e 75 91
e 75 92
e 75 93
e 75 99
e 75 100
e 76 89
e 76 90
e 76 91
e 76 92
e 76 93
e 76 94
e 76 96
e 76 97
e 76 98
e 76 99
e 76 100
e 77 89
e 77 90
e 77 91
e 77 92
e 77 99
e 77 100
e 78 85
e 78 86
e 78 87
e 78 92
e 78 93
e 78 99
e 78 100
e 79 85
e 79 86
e 79 87
e 79 90
e 79 93
e 79 99
e 79 100
e 80 85
e 80 86
e 80 87
e 80 93
e 80 99
e 80 100
e 81 85
e 81 86
e 81 87
e 81 89
e 81 99
e 81 100
e 82 85
e 82 86
e 82 87
e 82 93
e 82 94
e 83 85
e 83 86
e 83 87
e 83 93
e 84 85
e 84 86
e 84 87
e 84 90
e 84 93
e 85 86
e 85 87
e 85 88
e 85 89
e 85 90
e 85 92
e 85 93
e 85 98
e 86 88
e 86 90
e 86 91
e 86 92
e 87 89
e 87 91
e 87 92
e 87 94
e 88 89
e 88 91
e 88 92
e 88 94
e 88 95
e 88 96
e 88 97
e 88 98
e 89 94
e 89 95
e 89 96
e 89 97
e 89 98
e 90 92
e 90 94
e 90 95
e 90 96
e 90 97
e 90 98
e 91 92
e 91 94
e 91 95
e 91 96
e 91 97
e 91 98
e 92 94
e 92 95
e 92 96
e 92 97
e 92 98
e 92 100
e 93 94
e 93 95
e 93 96
e 93 97
e 93 100
e 94 95
e 94 96
e 95 96
e 96 98
e 96 99
